50,50,45,62
45,62,24,25
24,25,50,50
45,62,30,75
30,75,24,25
24,25,81,46
81,46,50,50
81,46,45,62
81,46,100,70
100,70,45,62
30,75,100,70
81,46,90,40
90,40,100,70
24,25,90,40
100,70,105,30
90,40,105,30
24,25,105,30
